0001 0
0002 0
0003 19
0004 4
0005 1
0006 0
0007 3
0008 0
0009 18
0010 7
0011 0
0012 1
0013 15
0014 5
0015 1
0016 0
0017 12
0018 10
0019 0
0020 1
0021 5
0022 0
0023 0
0024 1
0025 4
0026 15
0027 15
0028 18
0029 5
0030 9
0031 7
0032 1
0033 3
0034 4
0035 0
0036 2
0037 18
0038 3
0039 14
0040 9
0041 14
0042 3
0043 1
0044 19
0045 19
0046 7
0047 3
0048 15
0049 9
0050 0
0051 7
0052 2
0053 1
0054 6
0055 9
0056 4
0057 0
0058 1
0059 19
0060 5
0061 2
0062 1
0063 0
0064 3
0065 2
0066 3
0067 2
0068 0
0069 13
0070 1
0071 6
0072 2
0073 18
0074 3
0075 2
0076 4
0077 3
0078 4
0079 1
0080 1
0081 0
0082 2
0083 0
0084 4
0085 2
0086 4
0087 4
0088 2
0089 10
0090 19
0091 14
0092 9
0093 1
0094 13
0095 0
0096 3
0097 5
0098 4
0099 14
0100 11
0101 19
0102 2
0103 8
0104 9
0105 0
0106 6
0107 13
0108 3
0109 1
0110 1
0111 19
0112 19
0113 7
0114 18
0115 5
0116 15
0117 2
0118 4
0119 5
0120 15
0121 0
0122 0
0123 10
0124 3
0125 5
0126 0
0127 19
0128 0
0129 0
0130 2
0131 3
0132 4
0133 1
0134 13
0135 1
0136 2
0137 13
0138 0
0139 1
0140 13
0141 2
0142 15
0143 4
0144 0
0145 3
0146 13
0147 6
0148 2
0149 7
0150 3
0151 10
0152 5
0153 18
0154 1
0155 2
0156 7
0157 5
0158 0
0159 2
0160 2
0161 3
0162 0
0163 1
0164 19
0165 3
0166 13
0167 2
0168 15
0169 2
0170 0
0171 4
0172 6
0173 5
0174 19
0175 15
0176 1
0177 14
0178 0
0179 6
0180 5
0181 13
0182 2
0183 19
0184 1
0185 5
0186 8
0187 8
0188 9
0189 19
0190 11
0191 13
0192 6
0193 4
0194 3
0195 2
0196 15
0197 10
0198 11
0199 18
0200 1
0201 14
0202 1
0203 0
0204 0
0205 0
0206 2
0207 3
0208 0
0209 0
0210 4
0211 8
0212 8
0213 3
0214 7
0215 4
0216 0
0217 18
0218 1
0219 3
0220 7
0221 0
0222 6
0223 4
0224 7
0225 1
0226 7
0227 18
0228 3
0229 9
0230 19
0231 2
0232 2
0233 0
0234 1
0235 1
0236 4
0237 2
0238 2
0239 5
0240 2
0241 7
0242 4
0243 9
0244 19
0245 14
0246 4
0247 15
0248 14
0249 1
0250 16
0251 16
0252 17
0253 16
0254 16
0255 18
0256 16
0257 18
0258 18
0259 18
0260 18
0261 4
0262 2
0263 7
0264 18
0265 13
0266 19
0267 15
0268 4
0269 12
0270 2
0271 17
0272 6
0273 5
0274 14
0275 10
0276 1
0277 0
0278 1
0279 0
0280 3
0281 2
0282 3
0283 6
0284 0
0285 0
0286 18
0287 18
0288 1
0289 2
0290 3
0291 1
0292 0
0293 0
0294 1
0295 7
0296 0
0297 10
0298 6
0299 4
0300 0
0301 3
0302 14
0303 19
0304 14
0305 5
0306 0
0307 2
0308 7
0309 4
0310 0
0311 7
0312 0
0313 3
0314 0
0315 7
0316 7
0317 10
0318 3
0319 5
0320 19
0321 2
0322 19
0323 9
0324 7
0325 2
0326 2
0327 13
0328 1
0329 6
0330 0
0331 19
0332 12
0333 9
0334 18
0335 10
0336 5
0337 10
0338 3
0339 17
0340 11
0341 14
0342 8
0343 4
0344 1
0345 0
0346 13
0347 2
0348 5
0349 7
0350 3
0351 1
0352 8
0353 15
0354 7
0355 0
0356 8
0357 3
0358 19
0359 6
0360 11
0361 15
0362 5
0363 1
0364 10
0365 6
0366 6
0367 10
0368 11
0369 0
0370 0
0371 9
0372 4
0373 9
0374 7
0375 15
0376 5
0377 19
0378 13
0379 4
0380 19
0381 0
0382 1
0383 8
0384 2
0385 2
0386 5
0387 2
0388 5
0389 0
0390 5
0391 11
0392 11
0393 11
0394 11
0395 11
0396 12
0397 11
0398 18
0399 12
0400 15
0401 2
0402 4
0403 2
0404 2
0405 6
0406 1
0407 3
0408 2
0409 4
0410 0
0411 2
0412 2
0413 5
0414 5
0415 13
0416 19
0417 8
0418 1
0419 19
0420 9
0421 4
0422 5
0423 6
0424 3
0425 3
0426 2
0427 1
0428 0
0429 3
0430 13
0431 7
0432 18
0433 2
0434 5
0435 7
0436 2
0437 3
0438 4
0439 6
0440 0
0441 6
0442 0
0443 0
0444 3
0445 19
0446 2
0447 18
0448 5
0449 7
0450 6
0451 9
0452 13
0453 1
0454 18
0455 9
0456 1
0457 0
0458 4
0459 3
0460 18
0461 9
